100
32
21
1
12
4
16
3
15
6
7
7
10
9
8
11
8
7
6
9
2
27
3
1
17
1
3
1
17
5
19
2
1
2
1
2
1
1
3
3
3
1
19
2
3
4
20
1
1
1
1
2
19
18
14
1
17
2
2
1
18
3
2
7
2
3
1
1
5
1
5
2
1
1
2
1
16
3
1
3
5
3
1
3
1
1
1
1
2
17
3
2
1
1
1
1
1
2
2
1
2
2